(set-logic BV) (define-fun origCir ((n194 Bool) (n174 Bool) (n114 Bool) (n87 Bool)) Bool (and n194 (and n174 (and n114 n87)))) (synth-fun skel ((n194 Bool) (n174 Bool) (n114 Bool) (n87 Bool)) Bool) (declare-var n194 Bool) (declare-var n174 Bool) (declare-var n114 Bool) (declare-var n87 Bool) (constraint (= (origCir n194 n174 n114 n87) (skel n194 n174 n114 n87))) (check-synth)
